p cnf 45 465
1 2 3 4 5 6 7 8 9 0
-1 -2 0
-1 -3 0
-1 -4 0
-1 -5 0
-1 -6 0
-1 -7 0
-1 -8 0
-1 -9 0
-2 -3 0
-2 -4 0
-2 -5 0
-2 -6 0
-2 -7 0
-2 -8 0
-2 -9 0
-3 -4 0
-3 -5 0
-3 -6 0
-3 -7 0
-3 -8 0
-3 -9 0
-4 -5 0
-4 -6 0
-4 -7 0
-4 -8 0
-4 -9 0
-5 -6 0
-5 -7 0
-5 -8 0
-5 -9 0
-6 -7 0
-6 -8 0
-6 -9 0
-7 -8 0
-7 -9 0
-8 -9 0
10 11 12 13 14 15 16 17 18 0
-10 -11 0
-10 -12 0
-10 -13 0
-10 -14 0
-10 -15 0
-10 -16 0
-10 -17 0
-10 -18 0
-11 -12 0
-11 -13 0
-11 -14 0
-11 -15 0
-11 -16 0
-11 -17 0
-11 -18 0
-12 -13 0
-12 -14 0
-12 -15 0
-12 -16 0
-12 -17 0
-12 -18 0
-13 -14 0
-13 -15 0
-13 -16 0
-13 -17 0
-13 -18 0
-14 -15 0
-14 -16 0
-14 -17 0
-14 -18 0
-15 -16 0
-15 -17 0
-15 -18 0
-16 -17 0
-16 -18 0
-17 -18 0
19 20 21 22 23 24 25 26 27 0
-19 -20 0
-19 -21 0
-19 -22 0
-19 -23 0
-19 -24 0
-19 -25 0
-19 -26 0
-19 -27 0
-20 -21 0
-20 -22 0
-20 -23 0
-20 -24 0
-20 -25 0
-20 -26 0
-20 -27 0
-21 -22 0
-21 -23 0
-21 -24 0
-21 -25 0
-21 -26 0
-21 -27 0
-22 -23 0
-22 -24 0
-22 -25 0
-22 -26 0
-22 -27 0
-23 -24 0
-23 -25 0
-23 -26 0
-23 -27 0
-24 -25 0
-24 -26 0
-24 -27 0
-25 -26 0
-25 -27 0
-26 -27 0
28 29 30 31 32 33 34 35 36 0
-28 -29 0
-28 -30 0
-28 -31 0
-28 -32 0
-28 -33 0
-28 -34 0
-28 -35 0
-28 -36 0
-29 -30 0
-29 -31 0
-29 -32 0
-29 -33 0
-29 -34 0
-29 -35 0
-29 -36 0
-30 -31 0
-30 -32 0
-30 -33 0
-30 -34 0
-30 -35 0
-30 -36 0
-31 -32 0
-31 -33 0
-31 -34 0
-31 -35 0
-31 -36 0
-32 -33 0
-32 -34 0
-32 -35 0
-32 -36 0
-33 -34 0
-33 -35 0
-33 -36 0
-34 -35 0
-34 -36 0
-35 -36 0
37 38 39 40 41 42 43 44 45 0
-37 -38 0
-37 -39 0
-37 -40 0
-37 -41 0
-37 -42 0
-37 -43 0
-37 -44 0
-37 -45 0
-38 -39 0
-38 -40 0
-38 -41 0
-38 -42 0
-38 -43 0
-38 -44 0
-38 -45 0
-39 -40 0
-39 -41 0
-39 -42 0
-39 -43 0
-39 -44 0
-39 -45 0
-40 -41 0
-40 -42 0
-40 -43 0
-40 -44 0
-40 -45 0
-41 -42 0
-41 -43 0
-41 -44 0
-41 -45 0
-42 -43 0
-42 -44 0
-42 -45 0
-43 -44 0
-43 -45 0
-44 -45 0
-1 -10 0
-1 -19 0
-1 -28 0
-1 -37 0
-10 -19 0
-10 -28 0
-10 -37 0
-19 -28 0
-19 -37 0
-28 -37 0
-2 -11 0
-2 -20 0
-2 -29 0
-2 -38 0
-11 -20 0
-11 -29 0
-11 -38 0
-20 -29 0
-20 -38 0
-29 -38 0
-3 -12 0
-3 -21 0
-3 -30 0
-3 -39 0
-12 -21 0
-12 -30 0
-12 -39 0
-21 -30 0
-21 -39 0
-30 -39 0
-4 -13 0
-4 -22 0
-4 -31 0
-4 -40 0
-13 -22 0
-13 -31 0
-13 -40 0
-22 -31 0
-22 -40 0
-31 -40 0
-5 -14 0
-5 -23 0
-5 -32 0
-5 -41 0
-14 -23 0
-14 -32 0
-14 -41 0
-23 -32 0
-23 -41 0
-32 -41 0
-6 -15 0
-6 -24 0
-6 -33 0
-6 -42 0
-15 -24 0
-15 -33 0
-15 -42 0
-24 -33 0
-24 -42 0
-33 -42 0
-7 -16 0
-7 -25 0
-7 -34 0
-7 -43 0
-16 -25 0
-16 -34 0
-16 -43 0
-25 -34 0
-25 -43 0
-34 -43 0
-8 -17 0
-8 -26 0
-8 -35 0
-8 -44 0
-17 -26 0
-17 -35 0
-17 -44 0
-26 -35 0
-26 -44 0
-35 -44 0
-9 -18 0
-9 -27 0
-9 -36 0
-9 -45 0
-18 -27 0
-18 -36 0
-18 -45 0
-27 -36 0
-27 -45 0
-36 -45 0
-1 -11 0
-10 -2 0
-1 -20 0
-19 -2 0
-1 -29 0
-28 -2 0
-1 -38 0
-37 -2 0
-10 -20 0
-19 -11 0
-10 -29 0
-28 -11 0
-10 -38 0
-37 -11 0
-19 -29 0
-28 -20 0
-19 -38 0
-37 -20 0
-28 -38 0
-37 -29 0
-1 -13 0
-10 -4 0
-1 -22 0
-19 -4 0
-1 -31 0
-28 -4 0
-1 -40 0
-37 -4 0
-10 -22 0
-19 -13 0
-10 -31 0
-28 -13 0
-10 -40 0
-37 -13 0
-19 -31 0
-28 -22 0
-19 -40 0
-37 -22 0
-28 -40 0
-37 -31 0
-1 -14 0
-10 -5 0
-1 -23 0
-19 -5 0
-1 -32 0
-28 -5 0
-1 -41 0
-37 -5 0
-10 -23 0
-19 -14 0
-10 -32 0
-28 -14 0
-10 -41 0
-37 -14 0
-19 -32 0
-28 -23 0
-19 -41 0
-37 -23 0
-28 -41 0
-37 -32 0
-1 -15 0
-10 -6 0
-1 -24 0
-19 -6 0
-1 -33 0
-28 -6 0
-1 -42 0
-37 -6 0
-10 -24 0
-19 -15 0
-10 -33 0
-28 -15 0
-10 -42 0
-37 -15 0
-19 -33 0
-28 -24 0
-19 -42 0
-37 -24 0
-28 -42 0
-37 -33 0
-1 -17 0
-10 -8 0
-1 -26 0
-19 -8 0
-1 -35 0
-28 -8 0
-1 -44 0
-37 -8 0
-10 -26 0
-19 -17 0
-10 -35 0
-28 -17 0
-10 -44 0
-37 -17 0
-19 -35 0
-28 -26 0
-19 -44 0
-37 -26 0
-28 -44 0
-37 -35 0
-1 -18 0
-10 -9 0
-1 -27 0
-19 -9 0
-1 -36 0
-28 -9 0
-1 -45 0
-37 -9 0
-10 -27 0
-19 -18 0
-10 -36 0
-28 -18 0
-10 -45 0
-37 -18 0
-19 -36 0
-28 -27 0
-19 -45 0
-37 -27 0
-28 -45 0
-37 -36 0
-2 -12 0
-11 -3 0
-2 -21 0
-20 -3 0
-2 -30 0
-29 -3 0
-2 -39 0
-38 -3 0
-11 -21 0
-20 -12 0
-11 -30 0
-29 -12 0
-11 -39 0
-38 -12 0
-20 -30 0
-29 -21 0
-20 -39 0
-38 -21 0
-29 -39 0
-38 -30 0
-2 -15 0
-11 -6 0
-2 -24 0
-20 -6 0
-2 -33 0
-29 -6 0
-2 -42 0
-38 -6 0
-11 -24 0
-20 -15 0
-11 -33 0
-29 -15 0
-11 -42 0
-38 -15 0
-20 -33 0
-29 -24 0
-20 -42 0
-38 -24 0
-29 -42 0
-38 -33 0
-2 -16 0
-11 -7 0
-2 -25 0
-20 -7 0
-2 -34 0
-29 -7 0
-2 -43 0
-38 -7 0
-11 -25 0
-20 -16 0
-11 -34 0
-29 -16 0
-11 -43 0
-38 -16 0
-20 -34 0
-29 -25 0
-20 -43 0
-38 -25 0
-29 -43 0
-38 -34 0
-3 -15 0
-12 -6 0
-3 -24 0
-21 -6 0
-3 -33 0
-30 -6 0
-3 -42 0
-39 -6 0
-12 -24 0
-21 -15 0
-12 -33 0
-30 -15 0
-12 -42 0
-39 -15 0
-21 -33 0
-30 -24 0
-21 -42 0
-39 -24 0
-30 -42 0
-39 -33 0
-3 -16 0
-12 -7 0
-3 -25 0
-21 -7 0
-3 -34 0
-30 -7 0
-3 -43 0
-39 -7 0
-12 -25 0
-21 -16 0
-12 -34 0
-30 -16 0
-12 -43 0
-39 -16 0
-21 -34 0
-30 -25 0
-21 -43 0
-39 -25 0
-30 -43 0
-39 -34 0
-5 -15 0
-14 -6 0
-5 -24 0
-23 -6 0
-5 -33 0
-32 -6 0
-5 -42 0
-41 -6 0
-14 -24 0
-23 -15 0
-14 -33 0
-32 -15 0
-14 -42 0
-41 -15 0
-23 -33 0
-32 -24 0
-23 -42 0
-41 -24 0
-32 -42 0
-41 -33 0
-7 -17 0
-16 -8 0
-7 -26 0
-25 -8 0
-7 -35 0
-34 -8 0
-7 -44 0
-43 -8 0
-16 -26 0
-25 -17 0
-16 -35 0
-34 -17 0
-16 -44 0
-43 -17 0
-25 -35 0
-34 -26 0
-25 -44 0
-43 -26 0
-34 -44 0
-43 -35 0
-7 -18 0
-16 -9 0
-7 -27 0
-25 -9 0
-7 -36 0
-34 -9 0
-7 -45 0
-43 -9 0
-16 -27 0
-25 -18 0
-16 -36 0
-34 -18 0
-16 -45 0
-43 -18 0
-25 -36 0
-34 -27 0
-25 -45 0
-43 -27 0
-34 -45 0
-43 -36 0
